StudentsNr = 10;
InstructorsNr = 86;
DaysNr = 2;
SlotsPerDay = 10;
AvailabilitySlotsLenght = 10;
RoomNr = 1;
ProgrammNr = 1;
DegreeNr = 1;
RolesNr = 0;
CoursesNr = 8;
InstructorsProgramm = [{1}, {1}, {1}, {1}, {1}, {1}, {1}, {1}, {1}, {1}, {1}, {1}, {1}, {1}, {1}, {1}, {1}, {1}, {1}, {1}, {1}, {1}, {1}, {1}, {1}, {1}, {1}, {1}, {1}, {1}, {1}, {1}, {1}, {1}, {1}, {1}, {1}, {1}, {1}, {1}, {1}, {1}, {1}, {1}, {1}, {1}, {1}, {1}, {1}, {1}, {1}, {1}, {1}, {1}, {1}, {1}, {1}, {1}, {1}, {1}, {1}, {1}, {1}, {1}, {1}, {1}, {1}, {1}, {1}, {1}, {1}, {1}, {1}, {1}, {1}, {1}, {1}, {1}, {1}, {1}, {1}, {1}, {1}, {1}, {1}, {1}];
InstructorRolesPerProgramm = array2d(1..ProgrammNr,{},[]);
InstructorsAvailability = [|0, 1, |0, 1, |0, 0, |0, 1, |0, 0, |1, 1, |1, 1, |1, 1, |1, 1, |1, 1, |0, 1, |0, 1, |0, 1, |1, 1, |0, 1, |0, 0, |0, 1, |0, 0, |0, 0, |0, 1, |1, 1, |1, 1, |1, 1, |0, 1, |0, 1, |0, 1, |0, 1, |1, 1, |0, 1, |0, 1, |1, 1, |0, 0, |0, 1, |1, 1, |1, 1, |0, 0, |1, 1, |1, 1, |0, 0, |0, 1, |0, 1, |0, 1, |0, 1, |1, 1, |0, 1, |1, 1, |1, 1, |0, 0, |1, 0, |1, 1, |1, 1, |1, 0, |0, 0, |0, 1, |1, 1, |1, 1, |1, 1, |1, 1, |1, 1, |1, 1, |0, 0, |1, 1, |1, 1, |0, 1, |0, 1, |0, 1, |1, 1, |0, 0, |0, 0, |0, 0, |1, 1, |0, 1, |0, 0, |0, 0, |1, 0, |0, 0, |1, 1, |0, 0, |0, 0, |1, 1, |1, 1, |1, 1, |1, 1, |0, 1, |0, 0, |1, 1|];
StudentsProgramm = [1, 1, 1, 1, 1, 1, 1, 1, 1, 1];
StudentsDegree = [1, 1, 1, 1, 1, 1, 1, 1, 1, 1];
StudentsSupervisorId = [37, 36, 25, 58, 61, 27, 46, 48, 29, 8];
StudentsCourseIds = [{1, 3, 4}, {1, 5, 8}, {3, 7, 8}, {6, 7, 8}, {2, 5, 8}, {1, 6, 8}, {1, 2, 5}, {1, 5, 7}, {1, 2, 7}, {1, 5, 6}];
StudentsAvailability = [|1, 0, |0, 0, |0, 1, |1, 1, |0, 0, |1, 1, |0, 0, |1, 1, |1, 1, |0, 0|];
TheoryticalMinCard = [4, 3, 3, 4, 3, 3, 3, 3, 4, 3];
CoursesInstructorIds = [{10, 13, 15, 18, 21, 24, 27, 30, 35, 36, 38, 44, 45, 47, 48, 52, 56, 57, 58, 60, 64, 66, 72, 73, 74, 75, 76, 77, 79, 83, 84, 85}, {1, 3, 5, 7, 9, 10, 11, 12, 13, 15, 17, 21, 22, 23, 24, 25, 26, 30, 31, 33, 35, 36, 37, 38, 39, 42, 43, 44, 45, 46, 51, 52, 54, 55, 56, 58, 62, 63, 65, 67, 69, 72, 79, 80, 82, 85, 86}, {1, 4, 11, 12, 14, 16, 23, 27, 30, 31, 41, 44, 51, 52, 58, 61, 64, 68, 70, 71, 77, 79, 84}, {1, 2, 3, 4, 6, 7, 9, 10, 11, 13, 15, 16, 17, 18, 19, 21, 22, 23, 25, 26, 27, 28, 30, 31, 34, 35, 38, 39, 40, 41, 46, 47, 51, 52, 56, 57, 58, 60, 61, 64, 66, 67, 68, 70, 73, 75, 80, 82, 84, 86}, {3, 8, 10, 11, 18, 23, 26, 27, 33, 34, 39, 51, 55, 58, 59, 61, 78, 86}, {5, 14, 19, 20, 23, 28, 69}, {4, 5, 7, 10, 12, 13, 14, 19, 20, 22, 23, 24, 26, 31, 33, 37, 44, 47, 48, 51, 52, 53, 54, 55, 56, 63, 69, 73, 76, 77, 78, 84}, {1, 3, 4, 6, 8, 9, 10, 11, 12, 15, 16, 17, 19, 23, 25, 26, 27, 30, 31, 32, 33, 34, 35, 37, 38, 39, 40, 41, 42, 43, 45, 46, 47, 48, 49, 50, 55, 56, 57, 59, 62, 63, 65, 66, 67, 69, 70, 71, 72, 73, 76, 77, 79, 81, 82, 86}];
RolesDemands = [];
RolesContinuity = [];
ExamLen = [1, 1, 1, 1, 1, 1, 1, 1, 1, 1];
LunchTsMinLen = 1;
LunchStarts = [5..7, 13..17];
SupervisorAvailable = 5;
OptimalLunchLenght = [0, 1];
OptimalStartTs = [1, 0];
OptimalFinishTs = [0, 10];
MinimizeRooms = 500;
RolesSoftContinuity = array2d(1..2,{},[]);
SameDegreeInRoom = 10;
Mergeability = 2;
